NAME : CMT14Y
TYPE : MVRPB
DIMENSION : 101
VEHICLES : 10
CAPACITY : 20000
DISTANCE : 1040
EDGE_WEIGHT_TYPE : EXACT_2D
NODE_COORD_SECTION
1 40 50
2 45 68
3 45 70
4 42 66
5 42 68
6 42 65
7 40 69
8 40 66
9 38 68
10 38 70
11 35 66
12 35 69
13 25 85
14 22 75
15 22 85
16 20 80
17 20 85
18 18 75
19 15 75
20 15 80
21 30 50
22 30 52
23 28 52
24 28 55
25 25 50
26 25 52
27 25 55
28 23 52
29 23 55
30 20 50
31 20 55
32 10 35
33 10 40
34 8 40
35 8 45
36 5 35
37 5 45
38 2 40
39 0 40
40 0 45
41 35 30
42 35 32
43 33 32
44 33 35
45 32 30
46 30 30
47 30 32
48 30 35
49 28 30
50 28 35
51 26 32
52 25 30
53 25 35
54 44 5
55 42 10
56 42 15
57 40 5
58 40 15
59 38 5
60 38 15
61 35 5
62 50 30
63 50 35
64 50 40
65 48 30
66 48 40
67 47 35
68 47 40
69 45 30
70 45 35
71 95 30
72 95 35
73 53 30
74 92 30
75 53 35
76 45 65
77 90 35
78 88 30
79 88 35
80 87 30
81 85 25
82 85 35
83 75 55
84 72 55
85 70 58
86 68 60
87 66 55
88 65 55
89 65 60
90 63 58
91 60 55
92 60 60
93 67 85
94 65 85
95 65 82
96 62 80
97 60 80
98 60 85
99 58 75
100 55 80
101 55 85
PICKUP_AND_DELIVERY_SECTION
1 0 0 10000000 90 0 0
2 0 0 10000000 90 662 338
3 0 0 10000000 90 1929 1071
4 0 0 10000000 90 636 364
5 0 0 10000000 90 618 382
6 0 0 10000000 90 646 354
7 0 0 10000000 90 1159 841
8 0 0 10000000 90 1212 788
9 0 0 10000000 90 1118 882
10 0 0 10000000 90 543 457
11 0 0 10000000 90 530 470
12 0 0 10000000 90 507 493
13 0 0 10000000 90 588 1412
14 0 0 10000000 90 880 2120
15 0 0 10000000 90 259 741
16 0 0 10000000 90 1000 3000
17 0 0 10000000 90 941 3059
18 0 0 10000000 90 480 1520
19 0 0 10000000 90 400 1600
20 0 0 10000000 90 188 813
21 0 0 10000000 90 600 400
22 0 0 10000000 90 1154 846
23 0 0 10000000 90 1077 923
24 0 0 10000000 90 509 491
25 0 0 10000000 90 500 500
26 0 0 10000000 90 1923 2077
27 0 0 10000000 90 455 545
28 0 0 10000000 90 442 558
29 0 0 10000000 90 836 1164
30 0 0 10000000 90 400 600
31 0 0 10000000 90 364 636
32 0 0 10000000 90 571 1429
33 0 0 10000000 90 750 2250
34 0 0 10000000 90 800 3200
35 0 0 10000000 90 356 1644
36 0 0 10000000 90 143 857
37 0 0 10000000 90 111 889
38 0 0 10000000 90 100 1900
39 0 0 10000000 90 0 3000
40 0 0 10000000 90 0 2000
41 0 0 10000000 90 857 143
42 0 0 10000000 90 914 86
43 0 0 10000000 90 1939 61
44 0 0 10000000 90 943 57
45 0 0 10000000 90 938 63
46 0 0 10000000 90 1000 0
47 0 0 10000000 90 2813 188
48 0 0 10000000 90 857 143
49 0 0 10000000 90 933 67
50 0 0 10000000 90 800 200
51 0 0 10000000 90 813 188
52 0 0 10000000 90 833 167
53 0 0 10000000 90 714 286
54 0 0 10000000 90 227 1773
55 0 0 10000000 90 952 3048
56 0 0 10000000 90 357 643
57 0 0 10000000 90 375 2625
58 0 0 10000000 90 1500 2500
59 0 0 10000000 90 395 2605
60 0 0 10000000 90 395 605
61 0 0 10000000 90 286 1714
62 0 0 10000000 90 600 400
63 0 0 10000000 90 1400 600
64 0 0 10000000 90 4000 1000
65 0 0 10000000 90 625 375
66 0 0 10000000 90 833 167
67 0 0 10000000 90 745 255
68 0 0 10000000 90 851 149
69 0 0 10000000 90 667 333
70 0 0 10000000 90 778 222
71 0 0 10000000 90 947 2053
72 0 0 10000000 90 737 1263
73 0 0 10000000 90 566 434
74 0 0 10000000 90 326 674
75 0 0 10000000 90 3302 1698
76 0 0 10000000 90 1385 615
77 0 0 10000000 90 389 611
78 0 0 10000000 90 341 659
79 0 0 10000000 90 795 1205
80 0 0 10000000 90 345 655
81 0 0 10000000 90 294 706
82 0 0 10000000 90 1235 1765
83 0 0 10000000 90 1467 533
84 0 0 10000000 90 764 236
85 0 0 10000000 90 1657 343
86 0 0 10000000 90 2647 353
87 0 0 10000000 90 833 167
88 0 0 10000000 90 1692 308
89 0 0 10000000 90 2769 231
90 0 0 10000000 90 921 79
91 0 0 10000000 90 917 83
92 0 0 10000000 90 1000 0
93 0 0 10000000 90 1576 424
94 0 0 10000000 90 3059 941
95 0 0 10000000 90 793 207
96 0 0 10000000 90 2325 675
97 0 0 10000000 90 750 250
98 0 0 10000000 90 2118 882
99 0 0 10000000 90 1547 453
100 0 0 10000000 90 688 313
101 0 0 10000000 90 1294 706
DEPOT_SECTION
1 
-1
EOF
